(set-logic QF_S)
(declare-fun var0 () Int)
(declare-fun var1 () String)
(declare-fun var2 () String)
(declare-fun var3 () String)
(declare-fun var4 () Int)
(declare-fun var5 () String)
(declare-fun var6 () Int)
(declare-fun var7 () Int)
(assert (>= var0 79))
(assert (> (str.to.int var1) (str.to.int var2)))
(assert (str.in.re (str.at var3 var4) (re.* re.allchar)))
(assert (str.prefixof (str.substr var5 var6 var7) (str.replace var2 var5 "")))
(check-sat)